\ENCODING=ISO-8859-1
\Problem name: ilog.cplex

Minimize
 obj1: - x_0_1 - x_0_2 - x_0_3 + x_0_4 - x_0_7 - x_0_9 - x_0_10 + x_0_12
       + x_0_14 - x_0_16 - x_0_19 + x_0_20 + x_0_23 + x_0_24 - x_0_25
       + 0 x_0_28 + 0 x_0_29 + x_0_30 + x_1_2 + x_1_3 - x_1_4 - x_1_6 + x_1_7
       - x_1_8 - x_1_9 + x_1_13 + x_1_20 - x_1_27 + 0 x_1_28 + 0 x_1_29
       + 0 x_1_30 + x_1_31 - x_2_3 - x_2_4 - x_2_5 - x_2_6 - x_2_7 - x_2_8
       - x_2_9 - x_2_10 + x_2_11 + x_2_12 + 0 x_2_14 + x_2_18 + x_2_20 + x_2_21
       + 0 x_2_23 + 0 x_2_26 + 0 x_2_28 + 0 x_2_29 + 0 x_2_30 + x_2_31 - x_3_4
       + x_3_7 + x_3_8 + x_3_10 - x_3_14 + x_3_15 + x_3_18 - x_3_19 + x_3_21
       - x_3_24 - x_3_25 - x_3_27 + x_3_31 + x_4_5 - x_4_6 - x_4_7 + x_4_9
       - x_4_10 - x_4_14 - x_4_16 - x_4_17 - x_4_18 + x_4_19 + 0 x_4_23
       + x_4_24 + x_4_25 + 0 x_4_28 + 0 x_4_29 + x_4_30 - x_5_6 - x_5_7 + x_5_8
       - x_5_10 - x_5_12 - x_5_17 - x_5_22 + x_5_26 + 0 x_5_27 + 0 x_5_29
       + x_6_8 - x_6_9 - x_6_13 + x_6_15 - x_6_17 + x_6_20 + x_6_21 + x_6_27
       + 0 x_6_28 + 0 x_6_30 - x_6_31 + 0 x_7_8 + x_7_9 - x_7_11 + x_7_18
       + x_7_20 - x_7_25 + x_7_27 + 0 x_7_30 - x_8_9 + x_8_10 - x_8_11 + x_8_14
       + x_8_15 + x_8_17 + 0 x_8_19 + x_8_20 + x_8_21 + x_8_22 + 0 x_8_23
       + 0 x_8_26 + x_8_28 + 0 x_8_29 + 0 x_8_30 + 0 x_8_31 - x_9_10 + x_9_11
       + x_9_17 - x_9_18 - x_9_19 + x_9_20 - x_9_22 - x_9_25 + x_9_29 + x_9_30
       + x_10_11 + x_10_14 + x_10_21 + x_10_22 + 0 x_10_23 + x_10_26 + x_10_27
       + 0 x_10_28 + x_10_29 + 0 x_10_30 + 0 x_10_31 - x_11_12 - x_11_13
       - x_11_14 - x_11_15 - x_11_16 - x_11_17 + x_11_18 - x_11_20 - x_11_21
       + x_11_23 + 0 x_11_24 + x_11_25 + x_11_26 + 0 x_11_27 + 0 x_11_28
       + x_11_30 - x_11_31 - x_12_13 + x_12_14 - x_12_15 + x_12_18 - x_12_19
       - x_12_20 - x_12_21 - x_12_22 + 0 x_12_23 + 0 x_12_28 + x_12_31
       - x_13_14 - x_13_15 - x_13_16 - x_13_17 - x_13_18 - x_13_20 - x_13_21
       + 0 x_13_23 - x_13_26 + 0 x_13_28 - x_13_30 - x_14_15 + x_14_16
       - x_14_18 - x_14_19 + x_14_20 - x_14_21 + x_14_23 + 0 x_14_24 + x_14_25
       + 0 x_14_26 + 0 x_14_27 + x_14_28 + x_14_29 + x_14_30 - x_15_16
       - x_15_17 - x_15_18 + x_15_19 - x_15_20 - x_15_21 + 0 x_15_23 + x_15_25
       + x_15_26 + x_15_28 - x_15_29 - x_16_17 - x_16_18 - x_16_19 - x_16_20
       - x_16_21 + x_16_22 + 0 x_16_23 - x_16_25 + x_16_28 + x_16_31 - x_17_18
       - x_17_19 + x_17_20 + 0 x_17_23 + x_17_24 + x_17_25 + 0 x_17_26
       + 0 x_17_27 + x_17_28 + x_17_30 + x_17_31 + x_18_19 - x_18_20 - x_18_22
       + 0 x_18_23 + 0 x_18_24 + x_18_25 + x_18_26 + 0 x_18_27 + 0 x_18_28
       + 0 x_18_29 + 0 x_18_30 + x_18_31 - x_19_20 - x_19_21 + x_19_22
       + 0 x_19_23 + x_19_25 + 0 x_19_27 + x_19_28 + 0 x_19_29 + 0 x_19_30
       + 0 x_19_31 - x_20_21 + x_20_22 + x_20_23 + x_20_27 + 0 x_20_28
       + 0 x_21_23 - x_21_25 + 0 x_21_28 - x_22_23 - x_22_25 - x_22_26
       - x_22_27 - x_22_28 - x_22_29 - x_22_30 - x_23_24 - x_23_25 - x_23_26
       - x_23_28 - x_23_29 + x_23_30 - x_23_31 - x_24_25 - x_24_27 + x_24_28
       - x_24_30 + x_24_31 + x_25_26 - x_25_27 + x_25_28 - x_25_29 - x_25_31
       - x_26_27 - x_26_28 - x_26_29 + x_26_30 - x_26_31 + x_27_28 + x_27_29
       - x_27_31 - x_28_29 - x_28_30 - x_29_30 + x_29_31 + x_30_31 + 129
Subject To
 c1:   x_6_26 - x_6_27 - x_6_29 + x_26_27 + x_26_29 - x_27_29 <= 1
 c2:   x_1_4 - x_1_7 - x_1_18 - x_1_31 + x_4_7 + x_4_18 + x_4_31 - x_7_18
       - x_7_31 - x_18_31 <= 1
 c3:   x_2_5 - x_2_15 - x_2_25 + x_5_15 + x_5_25 - x_15_25 <= 1
 c4:   x_4_18 - x_4_19 - x_4_22 + x_18_19 + x_18_22 - x_19_22 <= 1
 c5:   - x_9_23 + x_9_25 - x_9_30 + x_23_25 - x_23_30 + x_25_30 <= 1
 c6:   - x_6_23 + x_6_26 - x_6_27 + x_23_26 - x_23_27 + x_26_27 <= 1
 c7:   - x_4_5 + x_4_12 - x_4_19 + x_5_12 - x_5_19 + x_12_19 <= 1
 c8:   - x_4_5 + x_4_13 - x_4_19 + x_5_13 - x_5_19 + x_13_19 <= 1
 c9:   - x_0_1 + x_0_9 - x_0_19 - x_0_26 + x_1_9 - x_1_19 - x_1_26 + x_9_19
       + x_9_26 - x_19_26 <= 1
 c10:  - x_5_26 + x_5_28 - x_5_30 + x_26_28 - x_26_30 + x_28_30 <= 1
 c11:  - x_1_3 + x_1_4 - x_1_7 - x_1_11 + x_3_4 - x_3_7 - x_3_11 + x_4_7
       + x_4_11 - x_7_11 <= 1
 c12:  - x_4_5 + x_4_12 - x_4_19 - x_4_26 + x_5_12 - x_5_19 - x_5_26 + x_12_19
       + x_12_26 - x_19_26 <= 1
 c13:  x_3_5 - x_3_6 - x_3_7 - x_3_16 + x_5_6 + x_5_7 + x_5_16 - x_6_7 - x_6_16
       - x_7_16 <= 1
 c14:  - x_0_1 + x_0_9 - x_0_23 + x_1_9 - x_1_23 + x_9_23 <= 1
 c15:  - x_4_5 + x_4_11 - x_4_19 + x_5_11 - x_5_19 + x_11_19 <= 1
 c16:  - x_0_4 - x_0_5 + x_0_6 - x_0_31 - x_4_5 + x_4_6 - x_4_31 + x_5_6
       - x_5_31 + x_6_31 <= 1
 c17:  x_0_2 - x_0_4 + x_2_4 <= 1
 c18:  - x_0_4 + x_0_10 + x_4_10 <= 1
 c19:  x_0_2 - x_0_6 + x_2_6 <= 1
 c20:  x_0_1 - x_0_8 + x_1_8 <= 1
 c21:  - x_0_8 + x_0_9 + x_8_9 <= 1
 c22:  - x_0_12 + x_0_19 + x_12_19 <= 1
 c23:  - x_0_13 + x_0_16 + x_13_16 <= 1
 c24:  - x_0_15 + x_0_16 + x_15_16 <= 1
 c25:  - x_0_17 + x_0_19 + x_17_19 <= 1
 c26:  x_0_16 - x_0_20 + x_16_20 <= 1
 c27:  x_0_19 - x_0_20 + x_19_20 <= 1
 c28:  x_0_16 - x_0_21 + x_16_21 <= 1
 c29:  x_0_19 - x_0_21 + x_19_21 <= 1
 c30:  x_0_9 - x_0_22 + x_9_22 <= 1
 c31:  - x_0_22 + x_0_25 + x_22_25 <= 1
 c32:  - x_0_23 + x_0_25 + x_23_25 <= 1
 c33:  x_0_3 - x_0_24 + x_3_24 <= 1
 c34:  - x_0_24 + x_0_25 + x_24_25 <= 1
 c35:  x_0_3 - x_0_27 + x_3_27 <= 1
 c36:  x_0_1 + x_0_2 - x_1_2 <= 1
 c37:  - x_1_2 + x_1_6 + x_2_6 <= 1
 c38:  - x_1_2 + x_1_9 + x_2_9 <= 1
 c39:  x_0_1 + x_0_3 - x_1_3 <= 1
 c40:  - x_1_3 + x_1_27 + x_3_27 <= 1
 c41:  - x_1_5 + x_1_6 + x_5_6 <= 1
 c42:  x_0_1 + x_0_7 - x_1_7 <= 1
 c43:  x_1_9 - x_1_10 + x_9_10 <= 1
 c44:  x_1_4 - x_1_16 + x_4_16 <= 1
 c45:  x_1_4 - x_1_18 + x_4_18 <= 1
 c46:  - x_1_24 + x_1_27 + x_24_27 <= 1
 c47:  x_1_9 - x_1_25 + x_9_25 <= 1
 c48:  - x_1_26 + x_1_27 + x_26_27 <= 1
 c49:  x_1_27 - x_1_31 + x_27_31 <= 1
 c50:  x_2_5 - x_2_12 + x_5_12 <= 1
 c51:  x_2_5 - x_2_17 + x_5_17 <= 1
 c52:  x_2_4 - x_2_18 + x_4_18 <= 1
 c53:  x_2_5 - x_2_22 + x_5_22 <= 1
 c54:  x_2_3 - x_2_24 + x_3_24 <= 1
 c55:  x_2_9 - x_2_25 + x_9_25 <= 1
 c56:  x_2_3 - x_2_27 + x_3_27 <= 1
 c57:  x_2_6 - x_2_31 + x_6_31 <= 1
 c58:  x_2_3 + x_2_7 - x_3_7 <= 1
 c59:  - x_3_7 + x_3_25 + x_7_25 <= 1
 c60:  x_0_3 + x_0_10 - x_3_10 <= 1
 c61:  x_2_3 + x_2_10 - x_3_10 <= 1
 c62:  - x_3_11 + x_3_14 + x_11_14 <= 1
 c63:  - x_3_12 + x_3_19 + x_12_19 <= 1
 c64:  - x_3_13 + x_3_14 + x_13_14 <= 1
 c65:  x_3_14 - x_3_15 + x_14_15 <= 1
 c66:  - x_3_16 + x_3_19 + x_16_19 <= 1
 c67:  - x_3_17 + x_3_19 + x_17_19 <= 1
 c68:  x_3_4 - x_3_18 + x_4_18 <= 1
 c69:  x_3_14 - x_3_18 + x_14_18 <= 1
 c70:  x_3_19 - x_3_20 + x_19_20 <= 1
 c71:  x_3_14 - x_3_21 + x_14_21 <= 1
 c72:  x_3_19 - x_3_21 + x_19_21 <= 1
 c73:  - x_3_26 + x_3_27 + x_26_27 <= 1
 c74:  x_3_25 - x_3_31 + x_25_31 <= 1
 c75:  x_3_27 - x_3_31 + x_27_31 <= 1
 c76:  - x_4_5 + x_4_6 + x_5_6 <= 1
 c77:  - x_4_5 + x_4_7 + x_5_7 <= 1
 c78:  - x_4_5 + x_4_17 + x_5_17 <= 1
 c79:  x_1_4 + x_1_9 - x_4_9 <= 1
 c80:  x_4_6 - x_4_9 + x_6_9 <= 1
 c81:  - x_4_11 + x_4_14 + x_11_14 <= 1
 c82:  - x_4_11 + x_4_16 + x_11_16 <= 1
 c83:  - x_4_11 + x_4_17 + x_11_17 <= 1
 c84:  - x_4_13 + x_4_16 + x_13_16 <= 1
 c85:  - x_4_15 + x_4_16 + x_15_16 <= 1
 c86:  x_4_14 - x_4_19 + x_14_19 <= 1
 c87:  x_4_16 - x_4_19 + x_16_19 <= 1
 c88:  x_4_17 - x_4_19 + x_17_19 <= 1
 c89:  x_4_16 - x_4_20 + x_16_20 <= 1
 c90:  x_4_16 - x_4_21 + x_16_21 <= 1
 c91:  x_3_4 + x_3_24 - x_4_24 <= 1
 c92:  x_2_5 + x_2_8 - x_5_8 <= 1
 c93:  x_5_6 - x_5_9 + x_6_9 <= 1
 c94:  - x_5_11 + x_5_17 + x_11_17 <= 1
 c95:  x_5_12 - x_5_13 + x_12_13 <= 1
 c96:  - x_5_13 + x_5_17 + x_13_17 <= 1
 c97:  x_5_12 - x_5_15 + x_12_15 <= 1
 c98:  - x_5_15 + x_5_17 + x_15_17 <= 1
 c99:  - x_5_16 + x_5_17 + x_16_17 <= 1
 c100: x_5_17 - x_5_18 + x_17_18 <= 1
 c101: x_5_12 - x_5_20 + x_12_20 <= 1
 c102: x_5_12 - x_5_21 + x_12_21 <= 1
 c103: x_5_22 - x_5_23 + x_22_23 <= 1
 c104: x_5_22 - x_5_26 + x_22_26 <= 1
 c105: x_1_6 + x_1_8 - x_6_8 <= 1
 c106: - x_6_8 + x_6_9 + x_8_9 <= 1
 c107: x_5_6 + x_5_12 - x_6_12 <= 1
 c108: - x_6_12 + x_6_13 + x_12_13 <= 1
 c109: x_6_13 - x_6_15 + x_13_15 <= 1
 c110: - x_6_15 + x_6_17 + x_15_17 <= 1
 c111: x_4_6 + x_4_16 - x_6_16 <= 1
 c112: x_6_13 - x_6_16 + x_13_16 <= 1
 c113: - x_6_16 + x_6_17 + x_16_17 <= 1
 c114: x_6_13 - x_6_20 + x_13_20 <= 1
 c115: x_6_13 - x_6_21 + x_13_21 <= 1
 c116: x_6_9 - x_6_22 + x_9_22 <= 1
 c117: x_0_7 + x_0_9 - x_7_9 <= 1
 c118: x_2_7 + x_2_9 - x_7_9 <= 1
 c119: x_2_7 + x_2_10 - x_7_10 <= 1
 c120: x_7_11 - x_7_12 + x_11_12 <= 1
 c121: x_7_11 - x_7_13 + x_11_13 <= 1
 c122: x_7_11 - x_7_14 + x_11_14 <= 1
 c123: x_7_11 - x_7_15 + x_11_15 <= 1
 c124: x_7_11 - x_7_16 + x_11_16 <= 1
 c125: x_5_7 + x_5_17 - x_7_17 <= 1
 c126: x_7_11 - x_7_17 + x_11_17 <= 1
 c127: x_4_7 + x_4_18 - x_7_18 <= 1
 c128: x_7_11 - x_7_20 + x_11_20 <= 1
 c129: x_7_11 - x_7_21 + x_11_21 <= 1
 c130: - x_7_24 + x_7_25 + x_24_25 <= 1
 c131: x_7_25 - x_7_27 + x_25_27 <= 1
 c132: x_2_8 + x_2_10 - x_8_10 <= 1
 c133: x_8_9 - x_8_10 + x_9_10 <= 1
 c134: x_8_11 - x_8_12 + x_11_12 <= 1
 c135: x_8_11 - x_8_13 + x_11_13 <= 1
 c136: x_8_11 - x_8_15 + x_11_15 <= 1
 c137: x_8_11 - x_8_16 + x_11_16 <= 1
 c138: x_8_11 - x_8_17 + x_11_17 <= 1
 c139: x_8_11 - x_8_20 + x_11_20 <= 1
 c140: x_8_11 - x_8_21 + x_11_21 <= 1
 c141: x_8_9 - x_8_25 + x_9_25 <= 1
 c142: - x_9_12 + x_9_19 + x_12_19 <= 1
 c143: - x_9_13 + x_9_18 + x_13_18 <= 1
 c144: - x_9_15 + x_9_18 + x_15_18 <= 1
 c145: - x_9_16 + x_9_18 + x_16_18 <= 1
 c146: - x_9_16 + x_9_19 + x_16_19 <= 1
 c147: - x_9_17 + x_9_18 + x_17_18 <= 1
 c148: - x_9_17 + x_9_19 + x_17_19 <= 1
 c149: x_9_18 - x_9_20 + x_18_20 <= 1
 c150: x_9_19 - x_9_20 + x_19_20 <= 1
 c151: x_9_19 - x_9_21 + x_19_21 <= 1
 c152: x_9_22 - x_9_23 + x_22_23 <= 1
 c153: - x_9_24 + x_9_25 + x_24_25 <= 1
 c154: x_9_22 - x_9_28 + x_22_28 <= 1
 c155: x_9_22 - x_9_29 + x_22_29 <= 1
 c156: x_9_25 - x_9_29 + x_25_29 <= 1
 c157: x_9_25 - x_9_31 + x_25_31 <= 1
 c158: x_5_10 + x_5_12 - x_10_12 <= 1
 c159: x_4_10 + x_4_14 - x_10_14 <= 1
 c160: x_5_10 + x_5_17 - x_10_17 <= 1
 c161: x_5_10 + x_5_22 - x_10_22 <= 1
 c162: x_9_10 + x_9_22 - x_10_22 <= 1
 c163: x_9_10 + x_9_25 - x_10_25 <= 1
 c164: x_11_13 - x_11_18 + x_13_18 <= 1
 c165: x_11_14 - x_11_18 + x_14_18 <= 1
 c166: x_11_15 - x_11_18 + x_15_18 <= 1
 c167: x_11_16 - x_11_18 + x_16_18 <= 1
 c168: x_11_17 - x_11_18 + x_17_18 <= 1
 c169: - x_11_18 + x_11_20 + x_18_20 <= 1
 c170: x_11_16 - x_11_25 + x_16_25 <= 1
 c171: x_11_21 - x_11_25 + x_21_25 <= 1
 c172: x_11_15 - x_11_29 + x_15_29 <= 1
 c173: x_11_13 - x_11_30 + x_13_30 <= 1
 c174: x_11_12 + x_11_14 - x_12_14 <= 1
 c175: x_12_13 - x_12_14 + x_13_14 <= 1
 c176: - x_12_14 + x_12_15 + x_14_15 <= 1
 c177: - x_12_14 + x_12_21 + x_14_21 <= 1
 c178: x_12_13 - x_12_16 + x_13_16 <= 1
 c179: x_12_15 - x_12_16 + x_15_16 <= 1
 c180: - x_12_16 + x_12_20 + x_16_20 <= 1
 c181: - x_12_16 + x_12_21 + x_16_21 <= 1
 c182: x_12_13 - x_12_17 + x_13_17 <= 1
 c183: x_12_15 - x_12_17 + x_15_17 <= 1
 c184: x_12_13 - x_12_18 + x_13_18 <= 1
 c185: x_12_15 - x_12_18 + x_15_18 <= 1
 c186: - x_12_18 + x_12_20 + x_18_20 <= 1
 c187: x_12_21 - x_12_25 + x_21_25 <= 1
 c188: x_12_13 - x_12_26 + x_13_26 <= 1
 c189: x_12_15 - x_12_29 + x_15_29 <= 1
 c190: x_12_13 - x_12_30 + x_13_30 <= 1
 c191: x_11_12 + x_11_31 - x_12_31 <= 1
 c192: x_12_13 + x_12_19 - x_13_19 <= 1
 c193: x_13_16 - x_13_19 + x_16_19 <= 1
 c194: - x_13_19 + x_13_20 + x_19_20 <= 1
 c195: - x_13_19 + x_13_21 + x_19_21 <= 1
 c196: x_12_13 + x_12_22 - x_13_22 <= 1
 c197: x_13_18 - x_13_22 + x_18_22 <= 1
 c198: x_13_16 - x_13_25 + x_16_25 <= 1
 c199: x_13_21 - x_13_25 + x_21_25 <= 1
 c200: x_13_15 - x_13_29 + x_15_29 <= 1
 c201: x_11_13 + x_11_31 - x_13_31 <= 1
 c202: x_11_14 + x_11_16 - x_14_16 <= 1
 c203: x_13_14 + x_13_16 - x_14_16 <= 1
 c204: x_14_15 - x_14_16 + x_15_16 <= 1
 c205: - x_14_16 + x_14_21 + x_16_21 <= 1
 c206: x_11_14 + x_11_17 - x_14_17 <= 1
 c207: x_11_14 + x_11_20 - x_14_20 <= 1
 c208: x_13_14 + x_13_20 - x_14_20 <= 1
 c209: x_14_15 - x_14_20 + x_15_20 <= 1
 c210: - x_14_20 + x_14_21 + x_20_21 <= 1
 c211: x_14_18 - x_14_22 + x_18_22 <= 1
 c212: x_14_15 - x_14_29 + x_15_29 <= 1
 c213: x_12_15 + x_12_19 - x_15_19 <= 1
 c214: x_15_16 - x_15_19 + x_16_19 <= 1
 c215: - x_15_19 + x_15_20 + x_19_20 <= 1
 c216: - x_15_19 + x_15_21 + x_19_21 <= 1
 c217: x_12_15 + x_12_22 - x_15_22 <= 1
 c218: x_15_18 - x_15_22 + x_18_22 <= 1
 c219: x_15_16 - x_15_25 + x_16_25 <= 1
 c220: x_15_21 - x_15_25 + x_21_25 <= 1
 c221: x_13_15 + x_13_26 - x_15_26 <= 1
 c222: - x_15_28 + x_15_29 + x_28_29 <= 1
 c223: x_13_15 + x_13_30 - x_15_30 <= 1
 c224: x_11_15 + x_11_31 - x_15_31 <= 1
 c225: x_16_18 - x_16_22 + x_18_22 <= 1
 c226: x_13_16 + x_13_26 - x_16_26 <= 1
 c227: x_15_16 + x_15_29 - x_16_29 <= 1
 c228: x_13_16 + x_13_30 - x_16_30 <= 1
 c229: x_11_16 + x_11_31 - x_16_31 <= 1
 c230: x_13_17 + x_13_20 - x_17_20 <= 1
 c231: x_15_17 + x_15_20 - x_17_20 <= 1
 c232: x_16_17 + x_16_20 - x_17_20 <= 1
 c233: x_13_17 + x_13_21 - x_17_21 <= 1
 c234: x_15_17 + x_15_21 - x_17_21 <= 1
 c235: x_16_17 + x_16_21 - x_17_21 <= 1
 c236: x_17_18 - x_17_22 + x_18_22 <= 1
 c237: x_16_17 + x_16_25 - x_17_25 <= 1
 c238: x_15_17 + x_15_29 - x_17_29 <= 1
 c239: x_13_17 + x_13_30 - x_17_30 <= 1
 c240: x_11_17 + x_11_31 - x_17_31 <= 1
 c241: x_14_18 + x_14_19 - x_18_19 <= 1
 c242: x_16_18 + x_16_19 - x_18_19 <= 1
 c243: x_17_18 + x_17_19 - x_18_19 <= 1
 c244: - x_18_19 + x_18_20 + x_19_20 <= 1
 c245: x_13_18 + x_13_21 - x_18_21 <= 1
 c246: x_15_18 + x_15_21 - x_18_21 <= 1
 c247: x_16_18 + x_16_21 - x_18_21 <= 1
 c248: x_18_20 - x_18_21 + x_20_21 <= 1
 c249: x_3_19 + x_3_24 - x_19_24 <= 1
 c250: x_12_20 + x_12_22 - x_20_22 <= 1
 c251: x_18_20 + x_18_22 - x_20_22 <= 1
 c252: x_16_20 + x_16_25 - x_20_25 <= 1
 c253: x_20_21 - x_20_25 + x_21_25 <= 1
 c254: x_13_20 + x_13_26 - x_20_26 <= 1
 c255: x_15_20 + x_15_29 - x_20_29 <= 1
 c256: x_13_20 + x_13_30 - x_20_30 <= 1
 c257: x_11_20 + x_11_31 - x_20_31 <= 1
 c258: x_12_21 + x_12_22 - x_21_22 <= 1
 c259: x_13_21 + x_13_26 - x_21_26 <= 1
 c260: x_15_21 + x_15_29 - x_21_29 <= 1
 c261: x_13_21 + x_13_30 - x_21_30 <= 1
 c262: x_11_21 + x_11_31 - x_21_31 <= 1
 c263: x_22_23 - x_22_31 + x_23_31 <= 1
 c264: x_22_26 - x_22_31 + x_26_31 <= 1
 c265: x_23_26 - x_23_27 + x_26_27 <= 1
 c266: x_22_23 + x_22_30 - x_23_30 <= 1
 c267: x_23_24 - x_23_30 + x_24_30 <= 1
 c268: x_23_28 - x_23_30 + x_28_30 <= 1
 c269: x_23_29 - x_23_30 + x_29_30 <= 1
 c270: x_23_24 + x_23_26 - x_24_26 <= 1
 c271: - x_24_26 + x_24_27 + x_26_27 <= 1
 c272: x_23_24 + x_23_28 - x_24_28 <= 1
 c273: - x_24_28 + x_24_30 + x_28_30 <= 1
 c274: - x_24_29 + x_24_30 + x_29_30 <= 1
 c275: x_23_24 + x_23_31 - x_24_31 <= 1
 c276: x_24_25 - x_24_31 + x_25_31 <= 1
 c277: x_24_27 - x_24_31 + x_27_31 <= 1
 c278: x_22_25 + x_22_26 - x_25_26 <= 1
 c279: x_23_25 + x_23_26 - x_25_26 <= 1
 c280: - x_25_26 + x_25_27 + x_26_27 <= 1
 c281: - x_25_26 + x_25_31 + x_26_31 <= 1
 c282: x_22_25 + x_22_28 - x_25_28 <= 1
 c283: - x_25_28 + x_25_29 + x_28_29 <= 1
 c284: x_24_25 + x_24_30 - x_25_30 <= 1
 c285: x_22_26 + x_22_30 - x_26_30 <= 1
 c286: x_26_28 - x_26_30 + x_28_30 <= 1
 c287: x_26_29 - x_26_30 + x_29_30 <= 1
 c288: x_22_27 + x_22_28 - x_27_28 <= 1
 c289: x_26_27 + x_26_28 - x_27_28 <= 1
 c290: x_22_27 + x_22_29 - x_27_29 <= 1
 c291: x_26_27 + x_26_29 - x_27_29 <= 1
 c292: x_24_27 + x_24_30 - x_27_30 <= 1
 c293: x_23_28 + x_23_31 - x_28_31 <= 1
 c294: x_26_28 + x_26_31 - x_28_31 <= 1
 c295: x_23_29 + x_23_31 - x_29_31 <= 1
 c296: x_26_29 + x_26_31 - x_29_31 <= 1
 c297: x_4_8 + x_4_18 - x_8_18 <= 1
 c298: x_6_7 + x_6_9 - x_7_9 <= 1
 c299: - x_7_9 + x_7_10 + x_9_10 <= 1
 c300: x_5_6 - x_5_8 + x_6_8 <= 1
 c301: - x_6_13 + x_6_18 + x_13_18 <= 1
 c302: - x_6_15 + x_6_18 + x_15_18 <= 1
 c303: x_6_18 - x_6_20 + x_18_20 <= 1
 c304: x_6_18 - x_6_21 + x_18_21 <= 1
 c305: x_6_10 + x_6_18 - x_10_18 <= 1
 c306: - x_1_12 + x_1_14 + x_12_14 <= 1
 c307: - x_1_12 + x_1_16 + x_12_16 <= 1
 c308: x_1_4 - x_1_13 + x_4_13 <= 1
 c309: - x_1_13 + x_1_14 + x_13_14 <= 1
 c310: - x_1_13 + x_1_16 + x_13_16 <= 1
 c311: x_1_4 - x_1_15 + x_4_15 <= 1
 c312: x_1_14 - x_1_15 + x_14_15 <= 1
 c313: - x_1_15 + x_1_16 + x_15_16 <= 1
 c314: x_1_4 - x_1_20 + x_4_20 <= 1
 c315: x_1_14 - x_1_20 + x_14_20 <= 1
 c316: x_1_16 - x_1_20 + x_16_20 <= 1
 c317: x_1_4 - x_1_21 + x_4_21 <= 1
 c318: x_1_14 - x_1_21 + x_14_21 <= 1
 c319: x_1_16 - x_1_21 + x_16_21 <= 1
 c320: - x_7_14 + x_7_19 + x_14_19 <= 1
 c321: x_7_12 - x_7_16 + x_12_16 <= 1
 c322: x_7_13 - x_7_16 + x_13_16 <= 1
 c323: - x_7_16 + x_7_19 + x_16_19 <= 1
 c324: x_1_6 - x_1_7 + x_6_7 <= 1
 c325: - x_1_15 + x_1_17 + x_15_17 <= 1
 c326: - x_2_15 + x_2_17 + x_15_17 <= 1
 c327: x_2_7 - x_2_22 + x_7_22 <= 1
 c328: x_3_22 - x_3_28 + x_22_28 <= 1
 c329: - x_6_11 + x_6_19 + x_11_19 <= 1
 c330: x_6_12 - x_6_13 + x_12_13 <= 1
 c331: x_6_12 - x_6_15 + x_12_15 <= 1
 c332: x_5_6 + x_5_17 - x_6_17 <= 1
 c333: x_5_6 + x_5_20 - x_6_20 <= 1
 c334: x_6_12 - x_6_20 + x_12_20 <= 1
 c335: x_6_12 - x_6_21 + x_12_21 <= 1
 c336: x_6_9 - x_6_27 + x_9_27 <= 1
 c337: x_10_12 - x_10_13 + x_12_13 <= 1
 c338: x_10_12 - x_10_15 + x_12_15 <= 1
 c339: - x_10_15 + x_10_17 + x_15_17 <= 1
 c340: x_10_12 - x_10_16 + x_12_16 <= 1
 c341: x_5_10 + x_5_20 - x_10_20 <= 1
 c342: x_10_12 - x_10_20 + x_12_20 <= 1
 c343: x_10_12 - x_10_21 + x_12_21 <= 1
 c344: x_15_17 + x_15_30 - x_17_30 <= 1
 c345: x_0_9 - x_0_23 + x_9_23 <= 1
 c346: - x_1_3 + x_1_9 + x_3_9 <= 1
 c347: - x_3_8 + x_3_27 + x_8_27 <= 1
 c348: - x_3_28 + x_3_30 + x_28_30 <= 1
 c349: - x_3_29 + x_3_30 + x_29_30 <= 1
 c350: x_0_5 + x_0_8 - x_5_8 <= 1
 c351: x_1_5 + x_1_8 - x_5_8 <= 1
 c352: - x_5_8 + x_5_9 + x_8_9 <= 1
 c353: x_1_8 + x_1_22 - x_8_22 <= 1
 c354: x_9_10 + x_9_24 - x_10_24 <= 1
 c355: - x_10_24 + x_10_25 + x_24_25 <= 1
 c356: x_22_24 - x_22_27 + x_24_27 <= 1
 c357: x_23_27 + x_23_28 - x_27_28 <= 1
 c358: x_23_27 + x_23_29 - x_27_29 <= 1
 c359: x_24_27 + x_24_29 - x_27_29 <= 1
 c360: - x_27_29 + x_27_30 + x_29_30 <= 1
 c361: x_22_30 + x_22_31 - x_30_31 <= 1
 c362: x_23_30 + x_23_31 - x_30_31 <= 1
 c363: x_24_30 + x_24_31 - x_30_31 <= 1
 c364: x_25_30 + x_25_31 - x_30_31 <= 1
 c365: x_26_30 + x_26_31 - x_30_31 <= 1
 c366: x_27_30 + x_27_31 - x_30_31 <= 1
 c367: x_29_30 + x_29_31 - x_30_31 <= 1
 c368: x_4_6 + x_4_13 - x_6_13 <= 1
 c369: x_4_6 + x_4_15 - x_6_15 <= 1
 c370: x_4_6 + x_4_20 - x_6_20 <= 1
 c371: x_4_6 + x_4_21 - x_6_21 <= 1
 c372: x_6_10 + x_6_14 - x_10_14 <= 1
 c373: x_0_11 - x_0_12 + x_11_12 <= 1
 c374: - x_0_12 + x_0_13 + x_12_13 <= 1
 c375: - x_0_14 + x_0_18 + x_14_18 <= 1
 c376: x_0_11 - x_0_15 + x_11_15 <= 1
 c377: x_0_13 - x_0_15 + x_13_15 <= 1
 c378: x_0_11 - x_0_16 + x_11_16 <= 1
 c379: x_0_13 - x_0_16 + x_13_16 <= 1
 c380: x_0_11 - x_0_17 + x_11_17 <= 1
 c381: x_0_11 - x_0_20 + x_11_20 <= 1
 c382: x_0_13 - x_0_20 + x_13_20 <= 1
 c383: x_0_11 - x_0_21 + x_11_21 <= 1
 c384: x_0_13 - x_0_21 + x_13_21 <= 1
 c385: x_0_22 - x_0_23 + x_22_23 <= 1
 c386: x_1_11 - x_1_12 + x_11_12 <= 1
 c387: - x_1_12 + x_1_17 + x_12_17 <= 1
 c388: x_1_11 - x_1_13 + x_11_13 <= 1
 c389: - x_1_13 + x_1_17 + x_13_17 <= 1
 c390: x_1_11 - x_1_15 + x_11_15 <= 1
 c391: x_1_11 - x_1_20 + x_11_20 <= 1
 c392: x_1_17 - x_1_20 + x_17_20 <= 1
 c393: x_1_11 - x_1_21 + x_11_21 <= 1
 c394: x_1_17 - x_1_21 + x_17_21 <= 1
 c395: - x_2_11 + x_2_17 + x_11_17 <= 1
 c396: - x_2_11 + x_2_19 + x_11_19 <= 1
 c397: - x_2_12 + x_2_13 + x_12_13 <= 1
 c398: - x_2_12 + x_2_16 + x_12_16 <= 1
 c399: - x_2_12 + x_2_17 + x_12_17 <= 1
 c400: x_2_13 - x_2_15 + x_13_15 <= 1
 c401: - x_2_15 + x_2_16 + x_15_16 <= 1
 c402: x_2_13 - x_2_20 + x_13_20 <= 1
 c403: x_2_16 - x_2_20 + x_16_20 <= 1
 c404: x_2_17 - x_2_20 + x_17_20 <= 1
 c405: x_2_13 - x_2_21 + x_13_21 <= 1
 c406: x_2_16 - x_2_21 + x_16_21 <= 1
 c407: x_2_17 - x_2_21 + x_17_21 <= 1
 c408: x_3_5 - x_3_7 + x_5_7 <= 1
 c409: - x_4_12 + x_4_13 + x_12_13 <= 1
 c410: - x_4_12 + x_4_15 + x_12_15 <= 1
 c411: - x_4_12 + x_4_16 + x_12_16 <= 1
 c412: - x_4_12 + x_4_20 + x_12_20 <= 1
 c413: - x_4_12 + x_4_21 + x_12_21 <= 1
 c414: - x_4_24 + x_4_27 + x_24_27 <= 1
 c415: x_5_11 - x_5_14 + x_11_14 <= 1
 c416: - x_5_14 + x_5_17 + x_14_17 <= 1
 c417: - x_5_24 + x_5_25 + x_24_25 <= 1
 c418: x_5_6 + x_5_13 - x_6_13 <= 1
 c419: - x_6_13 + x_6_16 + x_13_16 <= 1
 c420: - x_6_13 + x_6_19 + x_13_19 <= 1
 c421: x_5_6 + x_5_15 - x_6_15 <= 1
 c422: - x_6_15 + x_6_16 + x_15_16 <= 1
 c423: - x_6_15 + x_6_19 + x_15_19 <= 1
 c424: x_6_16 - x_6_20 + x_16_20 <= 1
 c425: x_6_19 - x_6_20 + x_19_20 <= 1
 c426: x_5_6 + x_5_21 - x_6_21 <= 1
 c427: x_6_16 - x_6_21 + x_16_21 <= 1
 c428: x_6_19 - x_6_21 + x_19_21 <= 1
 c429: - x_6_24 + x_6_25 + x_24_25 <= 1
 c430: x_6_25 - x_6_27 + x_25_27 <= 1
 c431: - x_7_11 + x_7_19 + x_11_19 <= 1
 c432: x_7_12 - x_7_15 + x_12_15 <= 1
 c433: x_7_13 - x_7_15 + x_13_15 <= 1
 c434: - x_7_15 + x_7_19 + x_15_19 <= 1
 c435: x_5_7 + x_5_18 - x_7_18 <= 1
 c436: x_7_12 - x_7_18 + x_12_18 <= 1
 c437: x_7_13 - x_7_18 + x_13_18 <= 1
 c438: x_7_17 - x_7_18 + x_17_18 <= 1
 c439: - x_7_18 + x_7_19 + x_18_19 <= 1
 c440: x_7_12 - x_7_20 + x_12_20 <= 1
 c441: x_7_13 - x_7_20 + x_13_20 <= 1
 c442: x_7_19 - x_7_20 + x_19_20 <= 1
 c443: x_7_12 - x_7_21 + x_12_21 <= 1
 c444: x_7_13 - x_7_21 + x_13_21 <= 1
 c445: x_7_19 - x_7_21 + x_19_21 <= 1
 c446: x_7_22 - x_7_23 + x_22_23 <= 1
 c447: x_7_22 - x_7_26 + x_22_26 <= 1
 c448: x_7_22 - x_7_28 + x_22_28 <= 1
 c449: x_7_22 - x_7_29 + x_22_29 <= 1
 c450: x_8_12 - x_8_15 + x_12_15 <= 1
 c451: x_8_13 - x_8_15 + x_13_15 <= 1
 c452: x_8_12 - x_8_16 + x_12_16 <= 1
 c453: x_8_13 - x_8_16 + x_13_16 <= 1
 c454: x_8_12 - x_8_20 + x_12_20 <= 1
 c455: x_8_13 - x_8_20 + x_13_20 <= 1
 c456: x_8_12 - x_8_21 + x_12_21 <= 1
 c457: x_8_13 - x_8_21 + x_13_21 <= 1
 c458: - x_8_24 + x_8_27 + x_24_27 <= 1
 c459: - x_9_11 + x_9_14 + x_11_14 <= 1
 c460: x_9_24 - x_9_30 + x_24_30 <= 1
 c461: x_9_25 - x_9_30 + x_25_30 <= 1
 c462: x_5_10 + x_5_11 - x_10_11 <= 1
 c463: - x_10_11 + x_10_17 + x_11_17 <= 1
 c464: x_5_10 + x_5_13 - x_10_13 <= 1
 c465: - x_10_13 + x_10_17 + x_13_17 <= 1
 c466: x_5_10 + x_5_15 - x_10_15 <= 1
 c467: x_5_10 + x_5_16 - x_10_16 <= 1
 c468: - x_10_16 + x_10_17 + x_16_17 <= 1
 c469: x_6_10 + x_6_19 - x_10_19 <= 1
 c470: x_10_17 - x_10_20 + x_17_20 <= 1
 c471: x_5_10 + x_5_21 - x_10_21 <= 1
 c472: x_10_17 - x_10_21 + x_17_21 <= 1
 c473: x_0_10 + x_0_27 - x_10_27 <= 1
 c474: x_11_12 - x_11_25 + x_12_25 <= 1
 c475: x_11_15 - x_11_30 + x_15_30 <= 1
 c476: x_11_20 - x_11_30 + x_20_30 <= 1
 c477: x_11_14 - x_11_31 + x_14_31 <= 1
 c478: x_11_12 + x_11_22 - x_12_22 <= 1
 c479: x_12_15 - x_12_22 + x_15_22 <= 1
 c480: x_12_21 - x_12_22 + x_21_22 <= 1
 c481: x_12_21 - x_12_24 + x_21_24 <= 1
 c482: x_12_16 - x_12_27 + x_16_27 <= 1
 c483: x_12_15 - x_12_30 + x_15_30 <= 1
 c484: x_12_20 - x_12_30 + x_20_30 <= 1
 c485: x_12_14 - x_12_31 + x_14_31 <= 1
 c486: x_12_21 - x_12_31 + x_21_31 <= 1
 c487: x_11_13 + x_11_22 - x_13_22 <= 1
 c488: x_13_15 - x_13_22 + x_15_22 <= 1
 c489: x_13_21 - x_13_22 + x_21_22 <= 1
 c490: x_13_21 - x_13_24 + x_21_24 <= 1
 c491: x_12_13 + x_12_25 - x_13_25 <= 1
 c492: x_13_16 - x_13_27 + x_16_27 <= 1
 c493: x_13_15 - x_13_30 + x_15_30 <= 1
 c494: x_13_20 - x_13_30 + x_20_30 <= 1
 c495: x_13_14 - x_13_31 + x_14_31 <= 1
 c496: x_13_21 - x_13_31 + x_21_31 <= 1
 c497: x_15_21 - x_15_24 + x_21_24 <= 1
 c498: x_12_15 + x_12_25 - x_15_25 <= 1
 c499: x_15_16 - x_15_27 + x_16_27 <= 1
 c500: x_14_15 + x_14_31 - x_15_31 <= 1
 c501: x_15_21 - x_15_31 + x_21_31 <= 1
 c502: x_11_16 + x_11_22 - x_16_22 <= 1
 c503: x_15_16 + x_15_22 - x_16_22 <= 1
 c504: x_16_21 - x_16_22 + x_21_22 <= 1
 c505: x_16_21 - x_16_24 + x_21_24 <= 1
 c506: x_12_16 + x_12_25 - x_16_25 <= 1
 c507: x_15_16 + x_15_30 - x_16_30 <= 1
 c508: x_16_20 - x_16_30 + x_20_30 <= 1
 c509: x_14_16 + x_14_31 - x_16_31 <= 1
 c510: x_16_21 - x_16_31 + x_21_31 <= 1
 c511: x_11_17 + x_11_22 - x_17_22 <= 1
 c512: x_12_17 + x_12_25 - x_17_25 <= 1
 c513: x_17_20 - x_17_30 + x_20_30 <= 1
 c514: x_14_17 + x_14_31 - x_17_31 <= 1
 c515: x_14_18 + x_14_31 - x_18_31 <= 1
 c516: x_11_20 + x_11_22 - x_20_22 <= 1
 c517: x_15_20 + x_15_22 - x_20_22 <= 1
 c518: x_20_21 - x_20_22 + x_21_22 <= 1
 c519: x_20_21 - x_20_24 + x_21_24 <= 1
 c520: x_12_20 + x_12_25 - x_20_25 <= 1
 c521: x_16_20 + x_16_27 - x_20_27 <= 1
 c522: x_14_20 + x_14_31 - x_20_31 <= 1
 c523: x_20_21 - x_20_31 + x_21_31 <= 1
 c524: x_12_21 + x_12_25 - x_21_25 <= 1
 c525: x_16_21 + x_16_27 - x_21_27 <= 1
 c526: x_15_21 + x_15_30 - x_21_30 <= 1
 c527: x_20_21 + x_20_30 - x_21_30 <= 1
 c528: x_28_30 + x_28_31 - x_30_31 <= 1
 c529: x_26_27 - x_26_30 + x_27_30 <= 1
 c530: x_1_26 - x_1_31 + x_26_31 <= 1
 c531: x_24_26 - x_24_31 + x_26_31 <= 1
 c532: x_24_26 + x_24_30 - x_26_30 <= 1
 c533: x_26_27 + x_26_31 - x_27_31 <= 1
 c534: x_3_26 - x_3_31 + x_26_31 <= 1
 c535: x_0_2 - x_0_7 + x_2_7 <= 1
 c536: - x_1_5 + x_1_9 + x_5_9 <= 1
 c537: - x_1_7 + x_1_10 + x_7_10 <= 1
 c538: x_2_6 + x_2_7 - x_6_7 <= 1
 c539: x_1_8 + x_1_9 - x_8_9 <= 1
 c540: x_1_8 + x_1_10 - x_8_10 <= 1
 c541: - x_6_7 + x_6_10 + x_7_10 <= 1
 c542: x_24_25 + x_24_26 - x_25_26 <= 1
 c543: x_0_5 - x_0_7 + x_5_7 <= 1
 c544: x_5_6 + x_5_7 - x_6_7 <= 1
 c545: x_5_7 + x_5_9 - x_7_9 <= 1
 c546: x_3_23 - x_3_28 + x_23_28 <= 1
 c547: - x_3_22 + x_3_24 + x_22_24 <= 1
 c548: x_0_3 + x_0_9 - x_3_9 <= 1
 c549: x_3_11 - x_3_12 + x_11_12 <= 1
 c550: x_3_11 - x_3_13 + x_11_13 <= 1
 c551: x_3_11 - x_3_15 + x_11_15 <= 1
 c552: x_3_11 - x_3_16 + x_11_16 <= 1
 c553: x_3_11 - x_3_17 + x_11_17 <= 1
 c554: x_3_11 - x_3_20 + x_11_20 <= 1
 c555: x_3_11 - x_3_21 + x_11_21 <= 1
Bounds
 0 <= x_0_1 <= 1
 0 <= x_0_2 <= 1
 0 <= x_0_3 <= 1
 0 <= x_0_4 <= 1
 0 <= x_0_5 <= 1
 0 <= x_0_6 <= 1
 0 <= x_0_7 <= 1
 0 <= x_0_8 <= 1
 0 <= x_0_9 <= 1
 0 <= x_0_10 <= 1
 0 <= x_0_11 <= 1
 0 <= x_0_12 <= 1
 0 <= x_0_13 <= 1
 0 <= x_0_14 <= 1
 0 <= x_0_15 <= 1
 0 <= x_0_16 <= 1
 0 <= x_0_17 <= 1
 0 <= x_0_18 <= 1
 0 <= x_0_19 <= 1
 0 <= x_0_20 <= 1
 0 <= x_0_21 <= 1
 0 <= x_0_22 <= 1
 0 <= x_0_23 <= 1
 0 <= x_0_24 <= 1
 0 <= x_0_25 <= 1
 0 <= x_0_26 <= 1
 0 <= x_0_27 <= 1
 0 <= x_0_28 <= 1
 0 <= x_0_29 <= 1
 0 <= x_0_30 <= 1
 0 <= x_0_31 <= 1
 0 <= x_1_2 <= 1
 0 <= x_1_3 <= 1
 0 <= x_1_4 <= 1
 0 <= x_1_5 <= 1
 0 <= x_1_6 <= 1
 0 <= x_1_7 <= 1
 0 <= x_1_8 <= 1
 0 <= x_1_9 <= 1
 0 <= x_1_10 <= 1
 0 <= x_1_11 <= 1
 0 <= x_1_12 <= 1
 0 <= x_1_13 <= 1
 0 <= x_1_14 <= 1
 0 <= x_1_15 <= 1
 0 <= x_1_16 <= 1
 0 <= x_1_17 <= 1
 0 <= x_1_18 <= 1
 0 <= x_1_19 <= 1
 0 <= x_1_20 <= 1
 0 <= x_1_21 <= 1
 0 <= x_1_22 <= 1
 0 <= x_1_23 <= 1
 0 <= x_1_24 <= 1
 0 <= x_1_25 <= 1
 0 <= x_1_26 <= 1
 0 <= x_1_27 <= 1
 0 <= x_1_28 <= 1
 0 <= x_1_29 <= 1
 0 <= x_1_30 <= 1
 0 <= x_1_31 <= 1
 0 <= x_2_3 <= 1
 0 <= x_2_4 <= 1
 0 <= x_2_5 <= 1
 0 <= x_2_6 <= 1
 0 <= x_2_7 <= 1
 0 <= x_2_8 <= 1
 0 <= x_2_9 <= 1
 0 <= x_2_10 <= 1
 0 <= x_2_11 <= 1
 0 <= x_2_12 <= 1
 0 <= x_2_13 <= 1
 0 <= x_2_14 <= 1
 0 <= x_2_15 <= 1
 0 <= x_2_16 <= 1
 0 <= x_2_17 <= 1
 0 <= x_2_18 <= 1
 0 <= x_2_19 <= 1
 0 <= x_2_20 <= 1
 0 <= x_2_21 <= 1
 0 <= x_2_22 <= 1
 0 <= x_2_23 <= 1
 0 <= x_2_24 <= 1
 0 <= x_2_25 <= 1
 0 <= x_2_26 <= 1
 0 <= x_2_27 <= 1
 0 <= x_2_28 <= 1
 0 <= x_2_29 <= 1
 0 <= x_2_30 <= 1
 0 <= x_2_31 <= 1
 0 <= x_3_4 <= 1
 0 <= x_3_5 <= 1
 0 <= x_3_6 <= 1
 0 <= x_3_7 <= 1
 0 <= x_3_8 <= 1
 0 <= x_3_9 <= 1
 0 <= x_3_10 <= 1
 0 <= x_3_11 <= 1
 0 <= x_3_12 <= 1
 0 <= x_3_13 <= 1
 0 <= x_3_14 <= 1
 0 <= x_3_15 <= 1
 0 <= x_3_16 <= 1
 0 <= x_3_17 <= 1
 0 <= x_3_18 <= 1
 0 <= x_3_19 <= 1
 0 <= x_3_20 <= 1
 0 <= x_3_21 <= 1
 0 <= x_3_22 <= 1
 0 <= x_3_23 <= 1
 0 <= x_3_24 <= 1
 0 <= x_3_25 <= 1
 0 <= x_3_26 <= 1
 0 <= x_3_27 <= 1
 0 <= x_3_28 <= 1
 0 <= x_3_29 <= 1
 0 <= x_3_30 <= 1
 0 <= x_3_31 <= 1
 0 <= x_4_5 <= 1
 0 <= x_4_6 <= 1
 0 <= x_4_7 <= 1
 0 <= x_4_8 <= 1
 0 <= x_4_9 <= 1
 0 <= x_4_10 <= 1
 0 <= x_4_11 <= 1
 0 <= x_4_12 <= 1
 0 <= x_4_13 <= 1
 0 <= x_4_14 <= 1
 0 <= x_4_15 <= 1
 0 <= x_4_16 <= 1
 0 <= x_4_17 <= 1
 0 <= x_4_18 <= 1
 0 <= x_4_19 <= 1
 0 <= x_4_20 <= 1
 0 <= x_4_21 <= 1
 0 <= x_4_22 <= 1
 0 <= x_4_23 <= 1
 0 <= x_4_24 <= 1
 0 <= x_4_25 <= 1
 0 <= x_4_26 <= 1
 0 <= x_4_27 <= 1
 0 <= x_4_28 <= 1
 0 <= x_4_29 <= 1
 0 <= x_4_30 <= 1
 0 <= x_4_31 <= 1
 0 <= x_5_6 <= 1
 0 <= x_5_7 <= 1
 0 <= x_5_8 <= 1
 0 <= x_5_9 <= 1
 0 <= x_5_10 <= 1
 0 <= x_5_11 <= 1
 0 <= x_5_12 <= 1
 0 <= x_5_13 <= 1
 0 <= x_5_14 <= 1
 0 <= x_5_15 <= 1
 0 <= x_5_16 <= 1
 0 <= x_5_17 <= 1
 0 <= x_5_18 <= 1
 0 <= x_5_19 <= 1
 0 <= x_5_20 <= 1
 0 <= x_5_21 <= 1
 0 <= x_5_22 <= 1
 0 <= x_5_23 <= 1
 0 <= x_5_24 <= 1
 0 <= x_5_25 <= 1
 0 <= x_5_26 <= 1
 0 <= x_5_27 <= 1
 0 <= x_5_28 <= 1
 0 <= x_5_29 <= 1
 0 <= x_5_30 <= 1
 0 <= x_5_31 <= 1
 0 <= x_6_7 <= 1
 0 <= x_6_8 <= 1
 0 <= x_6_9 <= 1
 0 <= x_6_10 <= 1
 0 <= x_6_11 <= 1
 0 <= x_6_12 <= 1
 0 <= x_6_13 <= 1
 0 <= x_6_14 <= 1
 0 <= x_6_15 <= 1
 0 <= x_6_16 <= 1
 0 <= x_6_17 <= 1
 0 <= x_6_18 <= 1
 0 <= x_6_19 <= 1
 0 <= x_6_20 <= 1
 0 <= x_6_21 <= 1
 0 <= x_6_22 <= 1
 0 <= x_6_23 <= 1
 0 <= x_6_24 <= 1
 0 <= x_6_25 <= 1
 0 <= x_6_26 <= 1
 0 <= x_6_27 <= 1
 0 <= x_6_28 <= 1
 0 <= x_6_29 <= 1
 0 <= x_6_30 <= 1
 0 <= x_6_31 <= 1
 0 <= x_7_8 <= 1
 0 <= x_7_9 <= 1
 0 <= x_7_10 <= 1
 0 <= x_7_11 <= 1
 0 <= x_7_12 <= 1
 0 <= x_7_13 <= 1
 0 <= x_7_14 <= 1
 0 <= x_7_15 <= 1
 0 <= x_7_16 <= 1
 0 <= x_7_17 <= 1
 0 <= x_7_18 <= 1
 0 <= x_7_19 <= 1
 0 <= x_7_20 <= 1
 0 <= x_7_21 <= 1
 0 <= x_7_22 <= 1
 0 <= x_7_23 <= 1
 0 <= x_7_24 <= 1
 0 <= x_7_25 <= 1
 0 <= x_7_26 <= 1
 0 <= x_7_27 <= 1
 0 <= x_7_28 <= 1
 0 <= x_7_29 <= 1
 0 <= x_7_30 <= 1
 0 <= x_7_31 <= 1
 0 <= x_8_9 <= 1
 0 <= x_8_10 <= 1
 0 <= x_8_11 <= 1
 0 <= x_8_12 <= 1
 0 <= x_8_13 <= 1
 0 <= x_8_14 <= 1
 0 <= x_8_15 <= 1
 0 <= x_8_16 <= 1
 0 <= x_8_17 <= 1
 0 <= x_8_18 <= 1
 0 <= x_8_19 <= 1
 0 <= x_8_20 <= 1
 0 <= x_8_21 <= 1
 0 <= x_8_22 <= 1
 0 <= x_8_23 <= 1
 0 <= x_8_24 <= 1
 0 <= x_8_25 <= 1
 0 <= x_8_26 <= 1
 0 <= x_8_27 <= 1
 0 <= x_8_28 <= 1
 0 <= x_8_29 <= 1
 0 <= x_8_30 <= 1
 0 <= x_8_31 <= 1
 0 <= x_9_10 <= 1
 0 <= x_9_11 <= 1
 0 <= x_9_12 <= 1
 0 <= x_9_13 <= 1
 0 <= x_9_14 <= 1
 0 <= x_9_15 <= 1
 0 <= x_9_16 <= 1
 0 <= x_9_17 <= 1
 0 <= x_9_18 <= 1
 0 <= x_9_19 <= 1
 0 <= x_9_20 <= 1
 0 <= x_9_21 <= 1
 0 <= x_9_22 <= 1
 0 <= x_9_23 <= 1
 0 <= x_9_24 <= 1
 0 <= x_9_25 <= 1
 0 <= x_9_26 <= 1
 0 <= x_9_27 <= 1
 0 <= x_9_28 <= 1
 0 <= x_9_29 <= 1
 0 <= x_9_30 <= 1
 0 <= x_9_31 <= 1
 0 <= x_10_11 <= 1
 0 <= x_10_12 <= 1
 0 <= x_10_13 <= 1
 0 <= x_10_14 <= 1
 0 <= x_10_15 <= 1
 0 <= x_10_16 <= 1
 0 <= x_10_17 <= 1
 0 <= x_10_18 <= 1
 0 <= x_10_19 <= 1
 0 <= x_10_20 <= 1
 0 <= x_10_21 <= 1
 0 <= x_10_22 <= 1
 0 <= x_10_23 <= 1
 0 <= x_10_24 <= 1
 0 <= x_10_25 <= 1
 0 <= x_10_26 <= 1
 0 <= x_10_27 <= 1
 0 <= x_10_28 <= 1
 0 <= x_10_29 <= 1
 0 <= x_10_30 <= 1
 0 <= x_10_31 <= 1
 0 <= x_11_12 <= 1
 0 <= x_11_13 <= 1
 0 <= x_11_14 <= 1
 0 <= x_11_15 <= 1
 0 <= x_11_16 <= 1
 0 <= x_11_17 <= 1
 0 <= x_11_18 <= 1
 0 <= x_11_19 <= 1
 0 <= x_11_20 <= 1
 0 <= x_11_21 <= 1
 0 <= x_11_22 <= 1
 0 <= x_11_23 <= 1
 0 <= x_11_24 <= 1
 0 <= x_11_25 <= 1
 0 <= x_11_26 <= 1
 0 <= x_11_27 <= 1
 0 <= x_11_28 <= 1
 0 <= x_11_29 <= 1
 0 <= x_11_30 <= 1
 0 <= x_11_31 <= 1
 0 <= x_12_13 <= 1
 0 <= x_12_14 <= 1
 0 <= x_12_15 <= 1
 0 <= x_12_16 <= 1
 0 <= x_12_17 <= 1
 0 <= x_12_18 <= 1
 0 <= x_12_19 <= 1
 0 <= x_12_20 <= 1
 0 <= x_12_21 <= 1
 0 <= x_12_22 <= 1
 0 <= x_12_23 <= 1
 0 <= x_12_24 <= 1
 0 <= x_12_25 <= 1
 0 <= x_12_26 <= 1
 0 <= x_12_27 <= 1
 0 <= x_12_28 <= 1
 0 <= x_12_29 <= 1
 0 <= x_12_30 <= 1
 0 <= x_12_31 <= 1
 0 <= x_13_14 <= 1
 0 <= x_13_15 <= 1
 0 <= x_13_16 <= 1
 0 <= x_13_17 <= 1
 0 <= x_13_18 <= 1
 0 <= x_13_19 <= 1
 0 <= x_13_20 <= 1
 0 <= x_13_21 <= 1
 0 <= x_13_22 <= 1
 0 <= x_13_23 <= 1
 0 <= x_13_24 <= 1
 0 <= x_13_25 <= 1
 0 <= x_13_26 <= 1
 0 <= x_13_27 <= 1
 0 <= x_13_28 <= 1
 0 <= x_13_29 <= 1
 0 <= x_13_30 <= 1
 0 <= x_13_31 <= 1
 0 <= x_14_15 <= 1
 0 <= x_14_16 <= 1
 0 <= x_14_17 <= 1
 0 <= x_14_18 <= 1
 0 <= x_14_19 <= 1
 0 <= x_14_20 <= 1
 0 <= x_14_21 <= 1
 0 <= x_14_22 <= 1
 0 <= x_14_23 <= 1
 0 <= x_14_24 <= 1
 0 <= x_14_25 <= 1
 0 <= x_14_26 <= 1
 0 <= x_14_27 <= 1
 0 <= x_14_28 <= 1
 0 <= x_14_29 <= 1
 0 <= x_14_30 <= 1
 0 <= x_14_31 <= 1
 0 <= x_15_16 <= 1
 0 <= x_15_17 <= 1
 0 <= x_15_18 <= 1
 0 <= x_15_19 <= 1
 0 <= x_15_20 <= 1
 0 <= x_15_21 <= 1
 0 <= x_15_22 <= 1
 0 <= x_15_23 <= 1
 0 <= x_15_24 <= 1
 0 <= x_15_25 <= 1
 0 <= x_15_26 <= 1
 0 <= x_15_27 <= 1
 0 <= x_15_28 <= 1
 0 <= x_15_29 <= 1
 0 <= x_15_30 <= 1
 0 <= x_15_31 <= 1
 0 <= x_16_17 <= 1
 0 <= x_16_18 <= 1
 0 <= x_16_19 <= 1
 0 <= x_16_20 <= 1
 0 <= x_16_21 <= 1
 0 <= x_16_22 <= 1
 0 <= x_16_23 <= 1
 0 <= x_16_24 <= 1
 0 <= x_16_25 <= 1
 0 <= x_16_26 <= 1
 0 <= x_16_27 <= 1
 0 <= x_16_28 <= 1
 0 <= x_16_29 <= 1
 0 <= x_16_30 <= 1
 0 <= x_16_31 <= 1
 0 <= x_17_18 <= 1
 0 <= x_17_19 <= 1
 0 <= x_17_20 <= 1
 0 <= x_17_21 <= 1
 0 <= x_17_22 <= 1
 0 <= x_17_23 <= 1
 0 <= x_17_24 <= 1
 0 <= x_17_25 <= 1
 0 <= x_17_26 <= 1
 0 <= x_17_27 <= 1
 0 <= x_17_28 <= 1
 0 <= x_17_29 <= 1
 0 <= x_17_30 <= 1
 0 <= x_17_31 <= 1
 0 <= x_18_19 <= 1
 0 <= x_18_20 <= 1
 0 <= x_18_21 <= 1
 0 <= x_18_22 <= 1
 0 <= x_18_23 <= 1
 0 <= x_18_24 <= 1
 0 <= x_18_25 <= 1
 0 <= x_18_26 <= 1
 0 <= x_18_27 <= 1
 0 <= x_18_28 <= 1
 0 <= x_18_29 <= 1
 0 <= x_18_30 <= 1
 0 <= x_18_31 <= 1
 0 <= x_19_20 <= 1
 0 <= x_19_21 <= 1
 0 <= x_19_22 <= 1
 0 <= x_19_23 <= 1
 0 <= x_19_24 <= 1
 0 <= x_19_25 <= 1
 0 <= x_19_26 <= 1
 0 <= x_19_27 <= 1
 0 <= x_19_28 <= 1
 0 <= x_19_29 <= 1
 0 <= x_19_30 <= 1
 0 <= x_19_31 <= 1
 0 <= x_20_21 <= 1
 0 <= x_20_22 <= 1
 0 <= x_20_23 <= 1
 0 <= x_20_24 <= 1
 0 <= x_20_25 <= 1
 0 <= x_20_26 <= 1
 0 <= x_20_27 <= 1
 0 <= x_20_28 <= 1
 0 <= x_20_29 <= 1
 0 <= x_20_30 <= 1
 0 <= x_20_31 <= 1
 0 <= x_21_22 <= 1
 0 <= x_21_23 <= 1
 0 <= x_21_24 <= 1
 0 <= x_21_25 <= 1
 0 <= x_21_26 <= 1
 0 <= x_21_27 <= 1
 0 <= x_21_28 <= 1
 0 <= x_21_29 <= 1
 0 <= x_21_30 <= 1
 0 <= x_21_31 <= 1
 0 <= x_22_23 <= 1
 0 <= x_22_24 <= 1
 0 <= x_22_25 <= 1
 0 <= x_22_26 <= 1
 0 <= x_22_27 <= 1
 0 <= x_22_28 <= 1
 0 <= x_22_29 <= 1
 0 <= x_22_30 <= 1
 0 <= x_22_31 <= 1
 0 <= x_23_24 <= 1
 0 <= x_23_25 <= 1
 0 <= x_23_26 <= 1
 0 <= x_23_27 <= 1
 0 <= x_23_28 <= 1
 0 <= x_23_29 <= 1
 0 <= x_23_30 <= 1
 0 <= x_23_31 <= 1
 0 <= x_24_25 <= 1
 0 <= x_24_26 <= 1
 0 <= x_24_27 <= 1
 0 <= x_24_28 <= 1
 0 <= x_24_29 <= 1
 0 <= x_24_30 <= 1
 0 <= x_24_31 <= 1
 0 <= x_25_26 <= 1
 0 <= x_25_27 <= 1
 0 <= x_25_28 <= 1
 0 <= x_25_29 <= 1
 0 <= x_25_30 <= 1
 0 <= x_25_31 <= 1
 0 <= x_26_27 <= 1
 0 <= x_26_28 <= 1
 0 <= x_26_29 <= 1
 0 <= x_26_30 <= 1
 0 <= x_26_31 <= 1
 0 <= x_27_28 <= 1
 0 <= x_27_29 <= 1
 0 <= x_27_30 <= 1
 0 <= x_27_31 <= 1
 0 <= x_28_29 <= 1
 0 <= x_28_30 <= 1
 0 <= x_28_31 <= 1
 0 <= x_29_30 <= 1
 0 <= x_29_31 <= 1
 0 <= x_30_31 <= 1
End
